# Lammps inpt script for C25 polymer simulation
# Written from rexlib

# INITIALISATION
units real
atom_style full
boundary f f f
read_data c60.data

# FORCEFIELD
pair_style lj/cut 10.00
pair_coeff 1 1 0.13986 3.73 10.00
pair_modify shift yes		
bond_style harmonic
bond_coeff 1 400 1.53
angle_style harmonic
angle_coeff 1 55.17204 111.0
 
# GEN VEL
velocity all create 300 54321 dist gaussian
thermo_style one
thermo 50

# MINIMIZE TO REMOVE CLASHES
minimize 1.0e-5 1.0e-6 1000 100000
thermo_style custom step fmax fnorm
thermo 100

# NEIGHBOR LIST SETTINGS
neighbor 2.0 bin
neigh_modify every 5 delay 10 check yes

# TIMESTEP
timestep 2.0

# THERMOSTAT
fix nvt all nvt temp 300 300 100	
thermo_style  custom step temp atoms pe
thermo 100
thermo_modify flush yes

# RECENTER POLYMER (SINCE DONE IN VACUUM)
fix nodrift all momentum 100 linear 1 1 1 angular
fix com all recenter 0.0 0.0 0.0 units box

# TRJFILE
dump trj all custom 100 c60.trj id type x y z

# ENE FILE
compute rg all gyration
compute my_pe all pe
fix ene all ave/time 1 10 100 c_my_pe c_rg file c60.ene

# RUN
run_style verlet
run 1000

# WRITE RESTART FILE 
write_restart init.restart

# WRITE OUTPUTDATA
write_data init0.data

# CLEANUP
undump trj
uncompute rg
uncompute my_pe
unfix ene
unfix nvt
unfix com
unfix nodrift
